(set-info :smt-lib-version 2.6)
(set-logic QF_UFLRA)
(set-info :source |
MathSat group

|)
(set-info :category "random")
(set-info :status unsat)
(declare-fun x0 () Real)
(declare-fun x1 () Real)
(declare-fun x2 () Real)
(declare-fun x3 () Real)
(declare-fun x4 () Real)
(declare-fun x5 () Real)
(declare-fun x6 () Real)
(declare-fun x7 () Real)
(declare-fun x8 () Real)
(declare-fun x9 () Real)
(declare-fun x10 () Real)
(declare-fun x11 () Real)
(declare-fun x12 () Real)
(declare-fun x13 () Real)
(declare-fun x14 () Real)
(declare-fun x15 () Real)
(declare-fun x16 () Real)
(declare-fun x17 () Real)
(declare-fun x18 () Real)
(declare-fun x19 () Real)
(declare-fun x20 () Real)
(declare-fun x21 () Real)
(declare-fun x22 () Real)
(declare-fun x23 () Real)
(declare-fun x24 () Real)
(declare-fun x25 () Real)
(declare-fun x26 () Real)
(declare-fun x27 () Real)
(declare-fun x28 () Real)
(declare-fun x29 () Real)
(declare-fun f0_1 (Real) Real)
(declare-fun f0_2 (Real Real) Real)
(declare-fun f0_3 (Real Real Real) Real)
(declare-fun f0_4 (Real Real Real Real) Real)
(declare-fun P0 () Bool)
(declare-fun P1 () Bool)
(declare-fun P2 () Bool)
(declare-fun P3 () Bool)
(declare-fun P4 () Bool)
(declare-fun P5 () Bool)
(declare-fun P6 () Bool)
(declare-fun P7 () Bool)
(declare-fun P8 () Bool)
(declare-fun P9 () Bool)
(declare-fun P10 () Bool)
(declare-fun P11 () Bool)
(declare-fun P12 () Bool)
(declare-fun P13 () Bool)
(declare-fun P14 () Bool)
(declare-fun P15 () Bool)
(declare-fun P16 () Bool)
(declare-fun P17 () Bool)
(declare-fun P18 () Bool)
(declare-fun P19 () Bool)
(declare-fun P20 () Bool)
(declare-fun P21 () Bool)
(declare-fun P22 () Bool)
(declare-fun P23 () Bool)
(declare-fun P24 () Bool)
(declare-fun P25 () Bool)
(declare-fun P26 () Bool)
(declare-fun P27 () Bool)
(declare-fun P28 () Bool)
(declare-fun P29 () Bool)
(assert (let ((?v_17 (* 30 x25)) (?v_30 (* 32 x25)) (?v_49 (* 35 x8)) (?v_36 (* 33 x4))) (let ((?v_129 (<= (- (+ ?v_36 (* 36 x18)) (* 12 x5)) 8)) (?v_58 (* 9 x11)) (?v_155 (= (- (- (* 32 x2) (* 12 x13)) (* 29 x25)) 29)) (?v_59 (* 9 x16)) (?v_116 (< (+ (- (* 3 x8) (* 6 x3)) (* 10 x8)) 0)) (?v_32 (* 9 x8)) (?v_12 (* 40 x8))) (let ((?v_157 (< (+ (- ?v_12 (* 16 x18)) (* 40 x7)) 5)) (?v_18 (= x9 (f0_2 x19 x12))) (?v_0 (f0_1 x18))) (let ((?v_41 (distinct ?v_0 x11)) (?v_6 (= (f0_2 x2 x29) (f0_2 x10 x28))) (?v_40 (distinct x28 x6)) (?v_81 (= x14 x18)) (?v_63 (= (f0_2 x16 x3) (f0_2 x25 x20))) (?v_95 (distinct (f0_2 x16 x20) (f0_1 x1))) (?v_54 (distinct (f0_1 x8) x25)) (?v_80 (f0_1 x3))) (let ((?v_113 (distinct ?v_80 x2)) (?v_99 (distinct ?v_0 x7)) (?v_19 (= (f0_2 x14 x1) x13)) (?v_5 (= x21 (f0_1 x23))) (?v_15 (f0_1 x0))) (let ((?v_37 (distinct ?v_15 ?v_15)) (?v_16 (distinct x7 ?v_0)) (?v_69 (= x18 (f0_2 x7 x9))) (?v_89 (= x0 ?v_80)) (?v_100 (= x5 x0)) (?v_31 (= (f0_1 x6) (f0_2 x20 x10))) (?v_44 (distinct (f0_2 x27 x1) x27)) (?v_21 (= x12 x11)) (?v_62 (= x21 (f0_1 x9))) (?v_82 (distinct (f0_1 x10) (f0_2 x6 x29))) (?v_72 (= x15 x19)) (?v_28 (= (f0_2 x27 x9) x14)) (?v_147 (= ?v_15 (f0_2 x26 x12))) (?v_110 (distinct (f0_2 x25 x19) x1)) (?v_47 (distinct ?v_0 x19)) (?v_60 (distinct x9 x0)) (?v_85 (= (f0_1 x13) (f0_2 x7 x1))) (?v_91 (distinct (f0_2 x8 x13) (f0_2 x7 x20))) (?v_88 (not ?v_41)) (?v_143 (not P22)) (?v_33 (not ?v_113))) (let ((?v_50 (not ?v_44)) (?v_4 (not ?v_5)) (?v_8 (not ?v_91)) (?v_77 (not ?v_63)) (?v_27 (not P20)) (?v_71 (not ?v_6)) (?v_103 (not P4)) (?v_39 (not P28)) (?v_20 (not ?v_21)) (?v_9 (not P19)) (?v_120 (not ?v_82)) (?v_125 (not P8)) (?v_79 (not ?v_18)) (?v_55 (not ?v_157)) (?v_93 (not ?v_16)) (?v_156 (not ?v_19)) (?v_24 (not ?v_54)) (?v_101 (not P12)) (?v_45 (not ?v_110)) (?v_118 (not P16)) (?v_86 (not ?v_72)) (?v_104 (not P24)) (?v_70 (not ?v_60)) (?v_130 (not P15)) (?v_78 (not ?v_129)) (?v_56 (not P14)) (?v_67 (not ?v_37)) (?v_53 (not P6)) (?v_111 (not P5)) (?v_92 (not ?v_95)) (?v_115 (not P9)) (?v_51 (not ?v_28)) (?v_98 (not P23)) (?v_94 (not P10)) (?v_114 (not P13)) (?v_146 (not P21)) (?v_119 (not ?v_147)) (?v_64 (not ?v_62)) (?v_117 (not P25)) (?v_142 (not ?v_69)) (?v_102 (not P26)) (?v_150 (not P17)) (?v_96 (not ?v_81)) (?v_109 (not P27)) (?v_112 (not P3)) (?v_139 (not ?v_116)) (?v_105 (not P18)) (?v_148 (not ?v_47)) (?v_126 (not ?v_100)) (?v_132 (not ?v_99)) (?v_136 (not ?v_40)) (?v_153 (not P2)) (?v_133 (not ?v_155)) (?v_122 (not P11)) (?v_123 (not ?v_85)) (?v_152 (not ?v_31)) (?v_128 (not ?v_89)) (?v_138 (not P0)) (?v_154 (not P1)) (?v_159 (not P7)) (?v_107 (< (- (* 7 x10) (* 17 x26)) 16))) (let ((?v_1 (not ?v_107)) (?v_3 (<= (- (+ (* 16 x27) ?v_12) x21) 41)) (?v_134 (<= (+ (* 13 x17) (* 30 x10) (* 42 x21)) 9))) (let ((?v_11 (not ?v_134)) (?v_46 (<= (- ?v_32 ?v_32) 35))) (let ((?v_65 (not ?v_46)) (?v_84 (not ?v_3)) (?v_75 (distinct (- (+ (* (- 6) x16) (* 2 x27)) (* 39 x1)) 0)) (?v_68 (< (- (+ (* (- 32) x22) (* 29 x28)) (* 26 x22)) 38)) (?v_2 (<= (+ (- (* (- 30) x20) 0) (* 37 x28)) 37)) (?v_29 (distinct (+ (- (* (- 15) x6) (* 25 x24)) (* 31 x5)) 42)) (?v_22 (<= (+ (* (- 6) x20) (* 40 x28) (* 41 x21)) (- 2)))) (let ((?v_42 (not ?v_22)) (?v_87 (distinct (+ (* (- 31) x5) (* 33 x20) (* 22 x5)) (- 18)))) (let ((?v_151 (not ?v_87)) (?v_121 (<= (- (- ?v_17 (* 17 x24)) (* 40 x24)) (- 17))) (?v_34 (<= (+ (- (* 35 x29) (* 25 x29)) (* 11 x5)) (- 11)))) (let ((?v_7 (not ?v_34)) (?v_14 (distinct (+ (* (- 6) x19) (* 3 x5) ?v_59) 9))) (let ((?v_25 (not ?v_14))) (let ((?v_161 (or ?v_25 ?v_4)) (?v_23 (distinct (- (- (* 8 x10) 0) (* 38 x3)) (- 39)))) (let ((?v_48 (not ?v_23)) (?v_35 (= (- (+ (* 41 x17) ?v_58) (* 31 x11)) (- 2))) (?v_13 (< (- (+ (* (- 22) x16) (* 31 x18)) (* 3 x14)) 18)) (?v_10 (< (+ (- (* (- 40) x28) ?v_49) (* 11 x10)) 10))) (let ((?v_76 (not ?v_10)) (?v_43 (not ?v_13)) (?v_26 (= (+ (* (- 7) x22) ?v_17 ?v_30) (- 23)))) (let ((?v_83 (not ?v_26)) (?v_124 (<= (- (- (* (- 15) x7) (* 39 x10)) ?v_36) (- 14)))) (let ((?v_144 (not ?v_124)) (?v_90 (distinct (+ (- (* (- 13) x16) (* 8 x2)) (* 28 x22)) 1))) (let ((?v_61 (not ?v_90)) (?v_66 (< (+ (- (* 15 x8) (* 31 x29)) (* 15 x28)) (- 20)))) (let ((?v_108 (not ?v_66)) (?v_38 (< (+ (* 25 x14) (* 35 x18) ?v_30) (- 12)))) (let ((?v_57 (not ?v_38))) (let ((?v_158 (or ?v_57 ?v_39)) (?v_106 (not ?v_35)) (?v_52 (<= (- (- (* 37 x25) ?v_49) (* 23 x12)) (- 35))) (?v_73 (<= (- (+ (* 11 x11) (* 17 x27)) (* 27 x11)) (- 28)))) (let ((?v_141 (not ?v_52)) (?v_97 (< (+ (* (- 3) x25) ?v_58 ?v_59) (- 24)))) (let ((?v_74 (not ?v_97)) (?v_137 (not ?v_29)) (?v_145 (not ?v_68)) (?v_135 (not ?v_75)) (?v_140 (< (+ (- (* 12 x8) (* 34 x3)) (* 38 x9)) (- 38))) (?v_127 (not ?v_73)) (?v_131 (not ?v_121)) (?v_149 (not ?v_2))) (let ((?v_160 (not ?v_140))) (and (and (and (and (and (and (and (and (and (and (and (and (and (and (and (and (and (and (and (and (and (and (and (and (and (and (and (and (and (and (and (and (and (and (and (and (and (and (and (and (and (and (and (and (and (and (and (and (and (and (and (and (and (and (and (and (and (and (and (and (and (and (and (and (and (and (and (and (and (and (and (and (and (and (and (and (and (and (and (and (and (and (and (and (and (and (and (and (and (and (and (and (and (and (and (and (and (and (and (and (and (and (and (and (and (and (and (and (and (and (and (and (and (and (and (and (and (and (and (and (and (and (and (and (and (and (and (and (and (and (and (and (and (and (and (and (and (and (and (and (and (and (and (and (and (and (and (and (and (and (and (and (and (and (and (and (and (and (and (and (and (and (and (and (and (and (and (and (and (and (and (and (and (and (and (and (and (and (and (and (and (and (and (and (and (and (and (and (and (and (and (and (and (and (and (and (and (and (and (and (and (and (and (and (and (and (and (and (and (and (and (and (and (and (and (and (and (and (and (and (and (and (and (and (and (and (and (and (and (and (and (and (and (and (and (and (and (and (and (and (and (and (and (and (and (and (and (and (and (and (and (and (and (and (and (and (and (and (and (and (and (and (and (and (and (and (and (and (and (and (and (and (and (and (and (and (and (and (and (and (and (and (and (and (and (and (and (and (and (and (and (and (and (and (and (and (and (and (and (and (and (and (and (and (and (and (and (and (and (and (and (and (and (and (and (and (and (and (and (and (and (and (and (and (and (and (and (and (and (and (and (and (and (and (and (and (and (and (and (and (and (and (and (and (and (and (and (and (and (and (and (and (and (and (and (and (and (and (and (or (or ?v_28 ?v_75) P20) (or (or ?v_88 ?v_19) ?v_68)) (or (or ?v_1 ?v_16) ?v_143)) (or (or ?v_1 ?v_2) P15)) (or (or P7 P6) ?v_6)) (or (or P9 ?v_2) ?v_29)) (or (or ?v_33 P4) ?v_3)) (or (or ?v_42 ?v_3) ?v_151)) (or (or ?v_121 ?v_50) ?v_7)) (or ?v_161 P5)) (or (or ?v_85 ?v_8) ?v_40)) (or (or ?v_31 ?v_77) ?v_4)) (or (or ?v_69 ?v_27) ?v_5)) (or (or ?v_71 ?v_48) ?v_103)) (or (or ?v_39 ?v_35) ?v_11)) (or (or ?v_7 ?v_20) P19)) (or (or P3 ?v_9) ?v_13)) (or (or P1 ?v_8) ?v_9)) (or (or ?v_120 ?v_10) P3)) (or (or ?v_125 ?v_76) ?v_79)) (or (or ?v_11 ?v_55) ?v_43)) (or (or P8 ?v_14) ?v_37)) (or (or ?v_93 ?v_83) ?v_18)) (or (or ?v_4 ?v_156) ?v_20)) (or (or ?v_24 P18) ?v_101)) (or (or P17 ?v_21) ?v_45)) (or (or ?v_22 ?v_118) ?v_23)) (or (or ?v_144 P18) ?v_21)) (or (or P3 ?v_24) ?v_86)) (or (or ?v_25 ?v_104) ?v_26)) (or (or ?v_27 ?v_28) ?v_61)) (or (or ?v_108 ?v_70) P28)) (or (or ?v_29 ?v_38) ?v_31)) (or (or ?v_46 ?v_130) ?v_47)) (or (or ?v_33 P16) ?v_34)) (or (or ?v_35 P4) ?v_78)) (or (or ?v_56 ?v_67) ?v_20)) (or ?v_158 ?v_40)) (or (or ?v_40 ?v_41) ?v_42)) (or (or ?v_106 ?v_53) P20)) (or (or ?v_43 ?v_62) ?v_111)) (or (or ?v_44 ?v_45) ?v_92)) (or (or ?v_65 ?v_47) P27)) (or (or ?v_48 ?v_16) ?v_115)) (or (or ?v_52 ?v_50) P0)) (or (or ?v_51 P13) P8)) (or (or ?v_73 ?v_51) ?v_47)) (or (or ?v_141 ?v_9) ?v_53)) (or (or P12 ?v_11) ?v_54)) (or (or ?v_45 ?v_23) ?v_55)) (or (or ?v_56 ?v_98) ?v_99)) (or (or ?v_57 ?v_74) ?v_84)) (or (or ?v_6 ?v_44) ?v_40)) (or (or ?v_3 ?v_94) ?v_60)) (or (or ?v_114 ?v_146) P0)) (or (or ?v_137 ?v_18) ?v_119)) (or (or ?v_57 ?v_61) ?v_7)) (or (or ?v_22 ?v_64) ?v_1)) (or (or ?v_63 ?v_64) ?v_117)) (or (or ?v_65 P23) ?v_5)) (or (or ?v_14 ?v_66) ?v_67)) (or (or ?v_145 ?v_53) P13)) (or (or ?v_57 ?v_142) P19)) (or (or ?v_70 ?v_64) ?v_81)) (or (or ?v_102 ?v_71) ?v_72)) (or (or P0 ?v_150) P15)) (or (or ?v_63 ?v_73) P12)) (or (or ?v_29 ?v_74) ?v_66)) (or (or ?v_135 ?v_28) ?v_63)) (or (or ?v_6 P25) ?v_70)) (or (or ?v_73 ?v_76) ?v_77)) (or (or ?v_35 ?v_78) P12)) (or (or ?v_34 ?v_65) ?v_61)) (or (or ?v_79 ?v_79) P11)) (or (or ?v_70 ?v_89) ?v_20)) (or (or ?v_96 ?v_82) ?v_83)) (or (or ?v_82 ?v_84) ?v_14)) (or (or ?v_85 P15) ?v_86)) (or (or ?v_41 ?v_56) ?v_109)) (or (or P21 P16) ?v_87)) (or (or ?v_112 ?v_139) P17)) (or (or P14 ?v_88) ?v_63)) (or (or ?v_140 P4) ?v_89)) (or (or ?v_63 ?v_5) ?v_90)) (or (or ?v_26 ?v_91) ?v_92)) (or (or ?v_83 ?v_66) ?v_64)) (or (or ?v_76 ?v_78) ?v_105)) (or (or ?v_93 P10) ?v_54)) (or (or ?v_148 ?v_94) P3)) (or (or ?v_33 ?v_95) ?v_96)) (or (or ?v_96 ?v_97) ?v_98)) (or (or ?v_73 ?v_99) ?v_57)) (or (or ?v_98 ?v_33) P25)) (or (or ?v_26 P23) ?v_41)) (or (or ?v_126 P10) ?v_28)) (or (or ?v_55 ?v_47) P15)) (or (or ?v_100 P2) ?v_101)) (or (or ?v_102 ?v_54) ?v_79)) (or (or ?v_132 ?v_103) ?v_91)) (or (or P22 ?v_11) ?v_97)) (or (or ?v_19 ?v_79) ?v_85)) (or (or ?v_22 ?v_97) ?v_78)) (or (or ?v_78 ?v_52) ?v_10)) (or (or P9 ?v_100) ?v_104)) (or (or ?v_105 ?v_136) P26)) (or (or ?v_104 P6) ?v_153)) (or (or ?v_82 ?v_78) ?v_91)) (or (or ?v_106 ?v_16) P16)) (or (or ?v_107 ?v_108) P13)) (or (or ?v_106 ?v_133) ?v_109)) (or (or P17 ?v_110) ?v_111)) (or (or ?v_127 P17) ?v_39)) (or (or ?v_112 ?v_68) ?v_74)) (or (or P27 ?v_50) ?v_65)) (or (or ?v_29 ?v_113) ?v_14)) (or (or ?v_3 ?v_122) ?v_114)) (or (or ?v_115 ?v_90) ?v_112)) (or (or ?v_123 ?v_116) P21)) (or (or P12 ?v_42) ?v_117)) (or (or ?v_98 ?v_104) ?v_55)) (or (or ?v_74 ?v_115) ?v_92)) (or (or ?v_118 P6) ?v_119)) (or (or ?v_51 ?v_45) ?v_90)) (or (or ?v_84 ?v_48) ?v_117)) (or (or ?v_31 ?v_120) ?v_55)) (or (or ?v_6 ?v_53) ?v_62)) (or (or ?v_152 P17) ?v_33)) (or (or ?v_131 ?v_122) ?v_37)) (or (or ?v_83 ?v_28) ?v_111)) (or (or ?v_24 ?v_128) ?v_123)) (or (or ?v_45 ?v_50) ?v_73)) (or (or ?v_82 ?v_69) ?v_24)) (or (or ?v_119 ?v_120) ?v_67)) (or (or ?v_124 ?v_86) P19)) (or (or ?v_116 ?v_111) P20)) (or (or ?v_149 ?v_125) P2)) (or (or ?v_126 ?v_64) ?v_138)) (or (or P13 P22) ?v_127)) (or (or ?v_68 ?v_77) ?v_56)) (or (or ?v_120 ?v_88) ?v_35)) (or (or ?v_128 P18) ?v_129)) (or (or ?v_113 ?v_126) ?v_67)) (or (or ?v_33 ?v_31) ?v_114)) (or (or ?v_64 ?v_89) ?v_1)) (or (or ?v_122 ?v_102) ?v_52)) (or (or P8 ?v_89) ?v_62)) (or (or P24 ?v_9) ?v_98)) (or (or ?v_41 P6) ?v_130)) (or (or ?v_116 ?v_131) P14)) (or (or ?v_71 ?v_132) ?v_112)) (or (or ?v_71 ?v_39) ?v_27)) (or (or ?v_100 ?v_127) ?v_90)) (or (or ?v_68 P10) P9)) (or (or P23 ?v_133) ?v_95)) (or (or ?v_154 ?v_103) ?v_55)) (or (or ?v_101 ?v_99) ?v_134)) (or (or ?v_101 ?v_43) ?v_33)) (or (or ?v_71 ?v_8) ?v_128)) (or (or P2 ?v_3) P23)) (or (or ?v_131 P1) ?v_39)) (or (or ?v_114 ?v_135) ?v_110)) (or (or ?v_39 ?v_136) ?v_84)) (or (or ?v_85 ?v_130) ?v_47)) (or (or ?v_85 ?v_117) ?v_133)) (or (or ?v_137 ?v_107) ?v_2)) (or (or ?v_9 ?v_57) ?v_138)) (or (or ?v_8 ?v_22) ?v_69)) (or (or ?v_2 ?v_86) ?v_40)) (or (or ?v_14 ?v_19) ?v_124)) (or (or P23 ?v_109) ?v_128)) (or (or ?v_69 ?v_33) ?v_16)) (or (or ?v_45 ?v_16) P17)) (or (or ?v_139 P2) P16)) (or (or P7 P28) ?v_125)) (or (or ?v_13 ?v_160) ?v_94)) (or (or ?v_111 ?v_14) ?v_47)) (or (or P17 ?v_25) ?v_21)) (or (or ?v_68 ?v_130) P18)) (or (or ?v_127 ?v_68) ?v_46)) (or (or ?v_108 ?v_21) ?v_127)) (or (or ?v_57 ?v_141) P25)) (or (or ?v_79 ?v_41) P14)) (or (or ?v_65 ?v_82) ?v_142)) (or (or ?v_143 ?v_79) ?v_135)) (or (or ?v_144 ?v_122) ?v_77)) (or (or ?v_93 ?v_130) ?v_43)) (or (or ?v_21 ?v_10) ?v_31)) (or (or ?v_94 ?v_57) ?v_64)) (or (or ?v_113 ?v_33) ?v_4)) (or (or P11 ?v_102) ?v_145)) (or (or ?v_79 ?v_122) P8)) (or (or ?v_39 ?v_121) ?v_27)) (or (or ?v_46 ?v_38) ?v_31)) (or (or ?v_29 P24) ?v_138)) (or (or ?v_128 P10) ?v_83)) (or (or ?v_16 ?v_7) ?v_50)) (or (or ?v_47 ?v_69) P6)) (or (or ?v_46 ?v_120) ?v_42)) (or (or ?v_41 ?v_66) ?v_146)) (or (or ?v_50 ?v_66) ?v_40)) (or (or ?v_147 ?v_148) ?v_101)) (or (or ?v_149 P18) ?v_120)) (or (or ?v_27 ?v_11) ?v_26)) (or (or ?v_131 ?v_68) ?v_108)) (or (or ?v_149 ?v_114) ?v_65)) (or (or ?v_55 ?v_26) P1)) (or (or ?v_77 ?v_118) P11)) (or (or ?v_74 ?v_52) ?v_111)) (or (or ?v_159 ?v_22) ?v_85)) (or (or ?v_96 ?v_150) ?v_25)) (or (or ?v_129 ?v_37) ?v_134)) (or (or ?v_95 ?v_8) ?v_67)) (or (or ?v_151 ?v_133) ?v_28)) (or (or ?v_117 ?v_111) P24)) (or (or ?v_31 P27) P24)) (or (or P21 P25) ?v_152)) (or (or ?v_115 ?v_124) P17)) (or (or ?v_89 ?v_100) ?v_93)) (or (or ?v_43 ?v_7) P18)) (or (or ?v_96 ?v_96) ?v_151)) (or (or ?v_140 ?v_97) ?v_153)) (or (or ?v_51 ?v_41) ?v_38)) (or (or ?v_67 ?v_94) P17)) (or (or ?v_76 ?v_14) ?v_151)) (or (or ?v_92 ?v_3) P7)) (or (or ?v_93 ?v_79) ?v_61)) (or (or ?v_139 ?v_140) ?v_87)) (or (or ?v_120 ?v_152) ?v_27)) (or (or ?v_35 ?v_93) ?v_75)) (or (or ?v_73 ?v_37) ?v_33)) (or (or ?v_74 ?v_34) ?v_76)) (or (or ?v_25 ?v_137) ?v_50)) (or (or ?v_97 P25) ?v_25)) (or (or P17 ?v_1) ?v_153)) (or (or ?v_132 ?v_82) ?v_112)) (or (or ?v_130 ?v_150) ?v_146)) (or (or P23 ?v_50) ?v_41)) (or (or ?v_29 ?v_67) ?v_144)) (or (or ?v_95 ?v_147) ?v_86)) (or (or ?v_149 P9) ?v_110)) (or (or ?v_138 P5) ?v_142)) (or (or ?v_43 ?v_31) ?v_88)) (or (or ?v_154 P26) ?v_64)) (or (or ?v_78 ?v_106) ?v_155)) (or (or ?v_138 ?v_13) ?v_62)) (or (or ?v_50 ?v_98) P14)) (or (or ?v_84 ?v_57) ?v_37)) (or (or ?v_137 ?v_126) ?v_75)) (or (or ?v_117 ?v_135) ?v_87)) (or (or P20 ?v_156) P3)) (or (or P25 ?v_146) ?v_101)) (or (or ?v_84 P29) ?v_22)) (or (or ?v_75 ?v_48) ?v_106)) (or (or P28 ?v_104) ?v_34)) (or (or ?v_78 ?v_21) ?v_46)) (or (or ?v_25 ?v_135) ?v_5)) (or (or ?v_91 ?v_149) ?v_55)) (or (or P29 P24) ?v_139)) (or (or ?v_34 ?v_122) ?v_75)) (or (or ?v_130 ?v_139) ?v_120)) (or (or ?v_68 ?v_47) ?v_24)) (or (or ?v_120 ?v_41) ?v_89)) (or (or ?v_6 ?v_20) ?v_75)) (or (or ?v_148 ?v_83) ?v_130)) (or (or ?v_155 ?v_66) ?v_46)) (or (or ?v_37 ?v_95) ?v_23)) (or (or ?v_116 ?v_47) ?v_155)) (or (or P13 P19) ?v_26)) (or (or P4 P3) P8)) (or (or ?v_138 ?v_156) ?v_106)) (or (or ?v_137 ?v_39) ?v_157)) (or (or ?v_54 ?v_54) ?v_18)) (or ?v_158 ?v_91)) (or (or ?v_73 ?v_24) ?v_147)) (or (or ?v_31 ?v_8) P1)) (or (or ?v_8 P1) ?v_19)) (or (or ?v_119 ?v_45) ?v_87)) (or (or P19 P6) ?v_154)) (or (or ?v_4 (not P29)) P19)) (or (or P23 ?v_97) ?v_10)) (or (or ?v_4 ?v_143) ?v_96)) (or (or ?v_133 ?v_9) ?v_51)) (or (or ?v_107 ?v_159) ?v_150)) (or (or ?v_82 ?v_144) P21)) (or (or P25 ?v_110) ?v_139)) (or (or ?v_99 ?v_24) ?v_70)) (or (or ?v_25 P15) ?v_118)) (or (or P26 P28) ?v_83)) (or (or ?v_9 P11) ?v_151)) (or (or ?v_155 P10) ?v_91)) (or (or ?v_100 ?v_43) P2)) (or (or ?v_14 ?v_132) ?v_3)) (or (or ?v_153 ?v_102) ?v_144)) (or (or ?v_113 ?v_160) ?v_3)) (or (or ?v_67 ?v_10) ?v_134)) (or (or ?v_6 ?v_139) ?v_133)) (or (or ?v_46 ?v_94) ?v_69)) (or (or ?v_123 ?v_29) ?v_34)) (or (or ?v_3 ?v_117) ?v_11)) (or (or P23 ?v_7) ?v_69)) (or (or ?v_146 ?v_10) ?v_16)) (or (or P28 ?v_6) ?v_109)) (or (or ?v_147 ?v_23) ?v_37)) (or (or ?v_147 ?v_89) ?v_23)) (or (or ?v_14 ?v_77) ?v_71)) (or (or ?v_105 P13) P29)) (or (or ?v_45 ?v_126) ?v_137)) (or (or P16 ?v_117) P0)) (or (or ?v_142 P26) ?v_157)) (or (or ?v_62 ?v_89) ?v_120)) (or (or ?v_139 ?v_31) P9)) (or (or P0 ?v_139) ?v_147)) (or ?v_161 ?v_9)) (or (or ?v_38 ?v_51) P0)) (or (or ?v_149 ?v_148) ?v_128)) (or (or ?v_2 ?v_14) ?v_33)) (or (or P13 ?v_109) ?v_91)) (or (or ?v_87 ?v_51) ?v_13)) (or (or ?v_14 P12) ?v_81)) (or (or ?v_72 ?v_76) ?v_35)) (or (or P11 ?v_121) ?v_135)) (or (or ?v_26 ?v_66) P6)) (or (or ?v_73 ?v_98) ?v_26)) (or (or ?v_75 ?v_29) ?v_82)) (or (or ?v_29 ?v_152) ?v_39)) (or (or ?v_90 ?v_38) ?v_42)) (or (or ?v_91 ?v_111) ?v_54)) (or (or ?v_61 ?v_48) ?v_129)) (or (or P13 ?v_8) ?v_126)) (or (or P16 ?v_67) ?v_44)) (or (or ?v_50 ?v_131) ?v_3)) (or (or ?v_156 ?v_160) ?v_65)) (or (or ?v_135 ?v_75) ?v_50)) (or (or ?v_112 ?v_112) ?v_87)) (or (or ?v_38 ?v_112) ?v_111)) (or (or ?v_53 ?v_84) ?v_120)) (or (or ?v_86 ?v_23) ?v_150)) (or (or ?v_125 ?v_130) P14)) (or (or ?v_46 ?v_159) ?v_44)) (or (or P28 P5) ?v_147)) (or (or ?v_84 ?v_33) ?v_143)) (or (or ?v_143 ?v_101) ?v_62)) (or (or ?v_136 ?v_10) ?v_140)) (or (or ?v_113 ?v_117) ?v_91)) (or (or ?v_9 ?v_100) P8)) (or (or ?v_54 ?v_51) P19)) (or (or ?v_91 ?v_24) ?v_99)) (or (or ?v_89 ?v_94) ?v_64)) (or (or ?v_8 ?v_93) ?v_142)) (or (or ?v_134 ?v_109) ?v_149)) (or (or ?v_133 ?v_27) ?v_3)) (or (or P18 ?v_110) ?v_57)) (or (or P7 ?v_153) ?v_38)) (or (or ?v_141 ?v_156) ?v_74)) (or (or ?v_11 ?v_109) ?v_148)) (or (or ?v_65 ?v_144) ?v_146)) (or (or ?v_116 ?v_22) ?v_122)) (or (or ?v_47 ?v_43) ?v_105)) (or (or P19 ?v_117) P17)) (or (or ?v_56 P12) ?v_114)))))))))))))))))))))))))))))
(check-sat)
(exit)
